\ This file has been generated by DOcplex
\ ENCODING=ISO-8859-1
\Problem name: TRP_BigM

Minimize
 obj: thr_0_27_0 + thr_0_27_180 + thr_0_27_360 + thr_1_25_0 + thr_1_25_180
      + thr_1_25_360 + thr_2_13_0 + thr_2_13_180 + thr_2_13_360 + thr_3_39_0
      + thr_3_39_180 + thr_3_39_360 + thr_4_39_0 + thr_4_39_180 + thr_4_39_360
Subject To
 c1: - t_0_0 + t_0_1 >= 0
 c2: - t_0_1 + t_0_2 >= 0
 c3: - t_0_2 + t_0_3 >= 0
 c4: - t_0_3 + t_0_4 >= 108
 c5: - t_0_4 + t_0_5 >= 0
 c6: - t_0_5 + t_0_6 >= 162
 c7: - t_0_6 + t_0_7 >= 0
 c8: - t_0_7 + t_0_8 >= 425
 c9: - t_0_8 + t_0_9 >= 0
 c10: - t_0_9 + t_0_10 >= 300
 c11: - t_0_10 + t_0_11 >= 0
 c12: - t_0_11 + t_0_12 >= 346
 c13: - t_0_12 + t_0_13 >= 240
 c14: - t_0_13 + t_0_14 >= 463
 c15: - t_0_14 + t_0_15 >= 0
 c16: - t_0_15 + t_0_16 >= 241
 c17: - t_0_16 + t_0_17 >= 0
 c18: - t_0_17 + t_0_18 >= 496
 c19: - t_0_18 + t_0_19 >= 6360
 c20: - t_0_19 + t_0_20 >= 390
 c21: - t_0_20 + t_0_21 >= 0
 c22: - t_0_21 + t_0_22 >= 280
 c23: - t_0_22 + t_0_23 >= 0
 c24: - t_0_23 + t_0_24 >= 530
 c25: - t_0_24 + t_0_25 >= 300
 c26: - t_0_25 + t_0_26 >= 464
 c27: - t_0_26 + t_0_27 >= 0
 c28: - t_0_27 + t_0_28 >= 556
 c29: - t_1_0 + t_1_1 >= 21
 c30: - t_1_1 + t_1_2 >= 210
 c31: - t_1_2 + t_1_3 >= 30
 c32: - t_1_3 + t_1_4 >= 150
 c33: - t_1_4 + t_1_5 >= 30
 c34: - t_1_5 + t_1_6 >= 150
 c35: - t_1_6 + t_1_7 >= 30
 c36: - t_1_7 + t_1_8 >= 90
 c37: - t_1_8 + t_1_9 >= 30
 c38: - t_1_9 + t_1_10 >= 178
 c39: - t_1_10 + t_1_11 >= 0
 c40: - t_1_11 + t_1_12 >= 80
 c41: - t_1_12 + t_1_13 >= 0
 c42: - t_1_13 + t_1_14 >= 122
 c43: - t_1_14 + t_1_15 >= 40
 c44: - t_1_15 + t_1_16 >= 480
 c45: - t_1_16 + t_1_17 >= 180
 c46: - t_1_17 + t_1_18 >= 240
 c47: - t_1_18 + t_1_19 >= 0
 c48: - t_1_19 + t_1_20 >= 210
 c49: - t_1_20 + t_1_21 >= 30
 c50: - t_1_21 + t_1_22 >= 300
 c51: - t_1_22 + t_1_23 >= 0
 c52: - t_1_23 + t_1_24 >= 180
 c53: - t_1_24 + t_1_25 >= 0
 c54: - t_1_25 + t_1_26 >= 300
 c55: - t_2_0 + t_2_1 >= 0
 c56: - t_2_1 + t_2_2 >= 90
 c57: - t_2_2 + t_2_3 >= 0
 c58: - t_2_3 + t_2_4 >= 30
 c59: - t_2_4 + t_2_5 >= 0
 c60: - t_2_5 + t_2_6 >= 150
 c61: - t_2_6 + t_2_7 >= 30
 c62: - t_2_7 + t_2_8 >= 90
 c63: - t_2_8 + t_2_9 >= 30
 c64: - t_2_9 + t_2_10 >= 90
 c65: - t_2_10 + t_2_11 >= 30
 c66: - t_2_11 + t_2_12 >= 110
 c67: - t_2_12 + t_2_13 >= 0
 c68: - t_2_13 + t_2_14 >= 250
 c69: - t_3_0 + t_3_1 >= 60
 c70: - t_3_1 + t_3_2 >= 152
 c71: - t_3_2 + t_3_3 >= 0
 c72: - t_3_3 + t_3_4 >= 118
 c73: - t_3_4 + t_3_5 >= 30
 c74: - t_3_5 + t_3_6 >= 90
 c75: - t_3_6 + t_3_7 >= 30
 c76: - t_3_7 + t_3_8 >= 90
 c77: - t_3_8 + t_3_9 >= 30
 c78: - t_3_9 + t_3_10 >= 119
 c79: - t_3_10 + t_3_11 >= 0
 c80: - t_3_11 + t_3_12 >= 45
 c81: - t_3_12 + t_3_13 >= 0
 c82: - t_3_13 + t_3_14 >= 136
 c83: - t_3_14 + t_3_15 >= 60
 c84: - t_3_15 + t_3_16 >= 210
 c85: - t_3_16 + t_3_17 >= 30
 c86: - t_3_17 + t_3_18 >= 150
 c87: - t_3_18 + t_3_19 >= 30
 c88: - t_3_19 + t_3_20 >= 150
 c89: - t_3_20 + t_3_21 >= 30
 c90: - t_3_21 + t_3_22 >= 90
 c91: - t_3_22 + t_3_23 >= 30
 c92: - t_3_23 + t_3_24 >= 178
 c93: - t_3_24 + t_3_25 >= 0
 c94: - t_3_25 + t_3_26 >= 80
 c95: - t_3_26 + t_3_27 >= 0
 c96: - t_3_27 + t_3_28 >= 122
 c97: - t_3_28 + t_3_29 >= 40
 c98: - t_3_29 + t_3_30 >= 480
 c99: - t_3_30 + t_3_31 >= 0
 c100: - t_3_31 + t_3_32 >= 240
 c101: - t_3_32 + t_3_33 >= 0
 c102: - t_3_33 + t_3_34 >= 210
 c103: - t_3_34 + t_3_35 >= 30
 c104: - t_3_35 + t_3_36 >= 300
 c105: - t_3_36 + t_3_37 >= 0
 c106: - t_3_37 + t_3_38 >= 180
 c107: - t_3_38 + t_3_39 >= 0
 c108: - t_3_39 + t_3_40 >= 300
 c109: - t_4_0 + t_4_1 >= 0
 c110: - t_4_1 + t_4_2 >= 300
 c111: - t_4_2 + t_4_3 >= 0
 c112: - t_4_3 + t_4_4 >= 180
 c113: - t_4_4 + t_4_5 >= 0
 c114: - t_4_5 + t_4_6 >= 270
 c115: - t_4_6 + t_4_7 >= 30
 c116: - t_4_7 + t_4_8 >= 240
 c117: - t_4_8 + t_4_9 >= 0
 c118: - t_4_9 + t_4_10 >= 240
 c119: - t_4_10 + t_4_11 >= 0
 c120: - t_4_11 + t_4_12 >= 320
 c121: - t_4_12 + t_4_13 >= 40
 c122: - t_4_13 + t_4_14 >= 107
 c123: - t_4_14 + t_4_15 >= 0
 c124: - t_4_15 + t_4_16 >= 72
 c125: - t_4_16 + t_4_17 >= 0
 c126: - t_4_17 + t_4_18 >= 211
 c127: - t_4_18 + t_4_19 >= 30
 c128: - t_4_19 + t_4_20 >= 150
 c129: - t_4_20 + t_4_21 >= 30
 c130: - t_4_21 + t_4_22 >= 90
 c131: - t_4_22 + t_4_23 >= 30
 c132: - t_4_23 + t_4_24 >= 150
 c133: - t_4_24 + t_4_25 >= 30
 c134: - t_4_25 + t_4_26 >= 300
 c135: - t_4_26 + t_4_27 >= 180
 c136: - t_4_27 + t_4_28 >= 90
 c137: - t_4_28 + t_4_29 >= 0
 c138: - t_4_29 + t_4_30 >= 30
 c139: - t_4_30 + t_4_31 >= 0
 c140: - t_4_31 + t_4_32 >= 150
 c141: - t_4_32 + t_4_33 >= 30
 c142: - t_4_33 + t_4_34 >= 90
 c143: - t_4_34 + t_4_35 >= 30
 c144: - t_4_35 + t_4_36 >= 90
 c145: - t_4_36 + t_4_37 >= 30
 c146: - t_4_37 + t_4_38 >= 110
 c147: - t_4_38 + t_4_39 >= 0
 c148: - t_4_39 + t_4_40 >= 250
 c149: t_0_2 - t_1_9 + 43200 y_0_1_1_9 <= 43200
 c150: t_1_10 - t_0_1 - 43200 y_0_1_1_9 <= 0
 c151: t_0_4 - t_1_11 + 43200 y_0_3_1_11 <= 43200
 c152: t_1_12 - t_0_3 - 43200 y_0_3_1_11 <= 0
 c153: t_0_6 - t_1_13 + 43200 y_0_5_1_13 <= 43200
 c154: t_1_14 - t_0_5 - 43200 y_0_5_1_13 <= 0
 c155: t_0_8 - t_1_15 + 43200 y_0_7_1_15 <= 43200
 c156: t_1_16 - t_0_7 - 43200 y_0_7_1_15 <= 0
 c157: t_0_10 - t_1_17 + 43200 y_0_9_1_17 <= 43200
 c158: t_1_18 - t_0_9 - 43200 y_0_9_1_17 <= 0
 c159: t_0_12 - t_1_19 + 43200 y_0_11_1_19 <= 43200
 c160: t_1_20 - t_0_11 - 43200 y_0_11_1_19 <= 0
 c161: t_0_14 - t_1_21 + 43200 y_0_13_1_21 <= 43200
 c162: t_1_22 - t_0_13 - 43200 y_0_13_1_21 <= 0
 c163: t_0_16 - t_1_23 + 43200 y_0_15_1_23 <= 43200
 c164: t_1_24 - t_0_15 - 43200 y_0_15_1_23 <= 0
 c165: t_0_18 - t_1_25 + 43200 y_0_17_1_25 <= 43200
 c166: t_1_26 - t_0_17 - 43200 y_0_17_1_25 <= 0
 c167: t_0_2 - t_3_23 + 43200 y_0_1_3_23 <= 43200
 c168: t_3_24 - t_0_1 - 43200 y_0_1_3_23 <= 0
 c169: t_0_4 - t_3_25 + 43200 y_0_3_3_25 <= 43200
 c170: t_3_26 - t_0_3 - 43200 y_0_3_3_25 <= 0
 c171: t_0_6 - t_3_27 + 43200 y_0_5_3_27 <= 43200
 c172: t_3_28 - t_0_5 - 43200 y_0_5_3_27 <= 0
 c173: t_0_8 - t_3_29 + 43200 y_0_7_3_29 <= 43200
 c174: t_3_30 - t_0_7 - 43200 y_0_7_3_29 <= 0
 c175: t_0_10 - t_3_31 + 43200 y_0_9_3_31 <= 43200
 c176: t_3_32 - t_0_9 - 43200 y_0_9_3_31 <= 0
 c177: t_0_12 - t_3_33 + 43200 y_0_11_3_33 <= 43200
 c178: t_3_34 - t_0_11 - 43200 y_0_11_3_33 <= 0
 c179: t_0_14 - t_3_35 + 43200 y_0_13_3_35 <= 43200
 c180: t_3_36 - t_0_13 - 43200 y_0_13_3_35 <= 0
 c181: t_0_16 - t_3_37 + 43200 y_0_15_3_37 <= 43200
 c182: t_3_38 - t_0_15 - 43200 y_0_15_3_37 <= 0
 c183: t_0_18 - t_3_39 + 43200 y_0_17_3_39 <= 43200
 c184: t_3_40 - t_0_17 - 43200 y_0_17_3_39 <= 0
 c185: t_0_2 - t_4_17 + 43200 y_0_1_4_17 <= 43200
 c186: t_4_18 - t_0_1 - 43200 y_0_1_4_17 <= 0
 c187: t_0_4 - t_4_15 + 43200 y_0_3_4_15 <= 43200
 c188: t_4_16 - t_0_3 - 43200 y_0_3_4_15 <= 0
 c189: t_0_6 - t_4_13 + 43200 y_0_5_4_13 <= 43200
 c190: t_4_14 - t_0_5 - 43200 y_0_5_4_13 <= 0
 c191: t_0_8 - t_4_11 + 43200 y_0_7_4_11 <= 43200
 c192: t_4_12 - t_0_7 - 43200 y_0_7_4_11 <= 0
 c193: t_0_10 - t_4_9 + 43200 y_0_9_4_9 <= 43200
 c194: t_4_10 - t_0_9 - 43200 y_0_9_4_9 <= 0
 c195: t_0_12 - t_4_7 + 43200 y_0_11_4_7 <= 43200
 c196: t_4_8 - t_0_11 - 43200 y_0_11_4_7 <= 0
 c197: t_0_14 - t_4_5 + 43200 y_0_13_4_5 <= 43200
 c198: t_4_6 - t_0_13 - 43200 y_0_13_4_5 <= 0
 c199: t_0_16 - t_4_3 + 43200 y_0_15_4_3 <= 43200
 c200: t_4_4 - t_0_15 - 43200 y_0_15_4_3 <= 0
 c201: t_0_18 - t_4_1 + 43200 y_0_17_4_1 <= 43200
 c202: t_4_2 - t_0_17 - 43200 y_0_17_4_1 <= 0
 c203: t_1_2 - t_3_15 + 43200 y_1_1_3_15 <= 43200
 c204: t_3_16 - t_1_1 - 43200 y_1_1_3_15 <= 0
 c205: t_1_4 - t_3_17 + 43200 y_1_3_3_17 <= 43200
 c206: t_3_18 - t_1_3 - 43200 y_1_3_3_17 <= 0
 c207: t_1_6 - t_3_19 + 43200 y_1_5_3_19 <= 43200
 c208: t_3_20 - t_1_5 - 43200 y_1_5_3_19 <= 0
 c209: t_1_8 - t_3_21 + 43200 y_1_7_3_21 <= 43200
 c210: t_3_22 - t_1_7 - 43200 y_1_7_3_21 <= 0
 c211: t_1_10 - t_3_23 + 43200 y_1_9_3_23 <= 43200
 c212: t_3_24 - t_1_9 - 43200 y_1_9_3_23 <= 0
 c213: t_1_12 - t_3_25 + 43200 y_1_11_3_25 <= 43200
 c214: t_3_26 - t_1_11 - 43200 y_1_11_3_25 <= 0
 c215: t_1_14 - t_3_27 + 43200 y_1_13_3_27 <= 43200
 c216: t_3_28 - t_1_13 - 43200 y_1_13_3_27 <= 0
 c217: t_1_16 - t_3_29 + 43200 y_1_15_3_29 <= 43200
 c218: t_3_30 - t_1_15 - 43200 y_1_15_3_29 <= 0
 c219: t_1_18 - t_3_31 + 43200 y_1_17_3_31 <= 43200
 c220: t_3_32 - t_1_17 - 43200 y_1_17_3_31 <= 0
 c221: t_1_20 - t_3_33 + 43200 y_1_19_3_33 <= 43200
 c222: t_3_34 - t_1_19 - 43200 y_1_19_3_33 <= 0
 c223: t_1_22 - t_3_35 + 43200 y_1_21_3_35 <= 43200
 c224: t_3_36 - t_1_21 - 43200 y_1_21_3_35 <= 0
 c225: t_1_24 - t_3_37 + 43200 y_1_23_3_37 <= 43200
 c226: t_3_38 - t_1_23 - 43200 y_1_23_3_37 <= 0
 c227: t_1_26 - t_3_39 + 43200 y_1_25_3_39 <= 43200
 c228: t_3_40 - t_1_25 - 43200 y_1_25_3_39 <= 0
 c229: t_1_2 - t_4_25 + 43200 y_1_1_4_25 <= 43200
 c230: t_4_26 - t_1_1 - 43200 y_1_1_4_25 <= 0
 c231: t_1_4 - t_4_23 + 43200 y_1_3_4_23 <= 43200
 c232: t_4_24 - t_1_3 - 43200 y_1_3_4_23 <= 0
 c233: t_1_6 - t_4_21 + 43200 y_1_5_4_21 <= 43200
 c234: t_4_22 - t_1_5 - 43200 y_1_5_4_21 <= 0
 c235: t_1_8 - t_4_19 + 43200 y_1_7_4_19 <= 43200
 c236: t_4_20 - t_1_7 - 43200 y_1_7_4_19 <= 0
 c237: t_1_10 - t_4_17 + 43200 y_1_9_4_17 <= 43200
 c238: t_4_18 - t_1_9 - 43200 y_1_9_4_17 <= 0
 c239: t_1_12 - t_4_15 + 43200 y_1_11_4_15 <= 43200
 c240: t_4_16 - t_1_11 - 43200 y_1_11_4_15 <= 0
 c241: t_1_14 - t_4_13 + 43200 y_1_13_4_13 <= 43200
 c242: t_4_14 - t_1_13 - 43200 y_1_13_4_13 <= 0
 c243: t_1_16 - t_4_11 + 43200 y_1_15_4_11 <= 43200
 c244: t_4_12 - t_1_15 - 43200 y_1_15_4_11 <= 0
 c245: t_1_18 - t_4_9 + 43200 y_1_17_4_9 <= 43200
 c246: t_4_10 - t_1_17 - 43200 y_1_17_4_9 <= 0
 c247: t_1_20 - t_4_7 + 43200 y_1_19_4_7 <= 43200
 c248: t_4_8 - t_1_19 - 43200 y_1_19_4_7 <= 0
 c249: t_1_22 - t_4_5 + 43200 y_1_21_4_5 <= 43200
 c250: t_4_6 - t_1_21 - 43200 y_1_21_4_5 <= 0
 c251: t_1_24 - t_4_3 + 43200 y_1_23_4_3 <= 43200
 c252: t_4_4 - t_1_23 - 43200 y_1_23_4_3 <= 0
 c253: t_1_26 - t_4_1 + 43200 y_1_25_4_1 <= 43200
 c254: t_4_2 - t_1_25 - 43200 y_1_25_4_1 <= 0
 c255: t_2_2 - t_3_13 + 43200 y_2_1_3_13 <= 43200
 c256: t_3_14 - t_2_1 - 43200 y_2_1_3_13 <= 0
 c257: t_2_4 - t_3_11 + 43200 y_2_3_3_11 <= 43200
 c258: t_3_12 - t_2_3 - 43200 y_2_3_3_11 <= 0
 c259: t_2_6 - t_3_9 + 43200 y_2_5_3_9 <= 43200
 c260: t_3_10 - t_2_5 - 43200 y_2_5_3_9 <= 0
 c261: t_2_8 - t_3_7 + 43200 y_2_7_3_7 <= 43200
 c262: t_3_8 - t_2_7 - 43200 y_2_7_3_7 <= 0
 c263: t_2_10 - t_3_5 + 43200 y_2_9_3_5 <= 43200
 c264: t_3_6 - t_2_9 - 43200 y_2_9_3_5 <= 0
 c265: t_2_12 - t_3_3 + 43200 y_2_11_3_3 <= 43200
 c266: t_3_4 - t_2_11 - 43200 y_2_11_3_3 <= 0
 c267: t_2_14 - t_3_1 + 43200 y_2_13_3_1 <= 43200
 c268: t_3_2 - t_2_13 - 43200 y_2_13_3_1 <= 0
 c269: t_2_2 - t_4_27 + 43200 y_2_1_4_27 <= 43200
 c270: t_4_28 - t_2_1 - 43200 y_2_1_4_27 <= 0
 c271: t_2_4 - t_4_29 + 43200 y_2_3_4_29 <= 43200
 c272: t_4_30 - t_2_3 - 43200 y_2_3_4_29 <= 0
 c273: t_2_6 - t_4_31 + 43200 y_2_5_4_31 <= 43200
 c274: t_4_32 - t_2_5 - 43200 y_2_5_4_31 <= 0
 c275: t_2_8 - t_4_33 + 43200 y_2_7_4_33 <= 43200
 c276: t_4_34 - t_2_7 - 43200 y_2_7_4_33 <= 0
 c277: t_2_10 - t_4_35 + 43200 y_2_9_4_35 <= 43200
 c278: t_4_36 - t_2_9 - 43200 y_2_9_4_35 <= 0
 c279: t_2_12 - t_4_37 + 43200 y_2_11_4_37 <= 43200
 c280: t_4_38 - t_2_11 - 43200 y_2_11_4_37 <= 0
 c281: t_2_14 - t_4_39 + 43200 y_2_13_4_39 <= 43200
 c282: t_4_40 - t_2_13 - 43200 y_2_13_4_39 <= 0
 c283: t_3_2 - t_4_39 + 43200 y_3_1_4_39 <= 43200
 c284: t_4_40 - t_3_1 - 43200 y_3_1_4_39 <= 0
 c285: t_3_4 - t_4_37 + 43200 y_3_3_4_37 <= 43200
 c286: t_4_38 - t_3_3 - 43200 y_3_3_4_37 <= 0
 c287: t_3_6 - t_4_35 + 43200 y_3_5_4_35 <= 43200
 c288: t_4_36 - t_3_5 - 43200 y_3_5_4_35 <= 0
 c289: t_3_8 - t_4_33 + 43200 y_3_7_4_33 <= 43200
 c290: t_4_34 - t_3_7 - 43200 y_3_7_4_33 <= 0
 c291: t_3_10 - t_4_31 + 43200 y_3_9_4_31 <= 43200
 c292: t_4_32 - t_3_9 - 43200 y_3_9_4_31 <= 0
 c293: t_3_12 - t_4_29 + 43200 y_3_11_4_29 <= 43200
 c294: t_4_30 - t_3_11 - 43200 y_3_11_4_29 <= 0
 c295: t_3_14 - t_4_27 + 43200 y_3_13_4_27 <= 43200
 c296: t_4_28 - t_3_13 - 43200 y_3_13_4_27 <= 0
 c297: t_3_16 - t_4_25 + 43200 y_3_15_4_25 <= 43200
 c298: t_4_26 - t_3_15 - 43200 y_3_15_4_25 <= 0
 c299: t_3_18 - t_4_23 + 43200 y_3_17_4_23 <= 43200
 c300: t_4_24 - t_3_17 - 43200 y_3_17_4_23 <= 0
 c301: t_3_20 - t_4_21 + 43200 y_3_19_4_21 <= 43200
 c302: t_4_22 - t_3_19 - 43200 y_3_19_4_21 <= 0
 c303: t_3_22 - t_4_19 + 43200 y_3_21_4_19 <= 43200
 c304: t_4_20 - t_3_21 - 43200 y_3_21_4_19 <= 0
 c305: t_3_24 - t_4_17 + 43200 y_3_23_4_17 <= 43200
 c306: t_4_18 - t_3_23 - 43200 y_3_23_4_17 <= 0
 c307: t_3_26 - t_4_15 + 43200 y_3_25_4_15 <= 43200
 c308: t_4_16 - t_3_25 - 43200 y_3_25_4_15 <= 0
 c309: t_3_28 - t_4_13 + 43200 y_3_27_4_13 <= 43200
 c310: t_4_14 - t_3_27 - 43200 y_3_27_4_13 <= 0
 c311: t_3_30 - t_4_11 + 43200 y_3_29_4_11 <= 43200
 c312: t_4_12 - t_3_29 - 43200 y_3_29_4_11 <= 0
 c313: t_3_32 - t_4_9 + 43200 y_3_31_4_9 <= 43200
 c314: t_4_10 - t_3_31 - 43200 y_3_31_4_9 <= 0
 c315: t_3_34 - t_4_7 + 43200 y_3_33_4_7 <= 43200
 c316: t_4_8 - t_3_33 - 43200 y_3_33_4_7 <= 0
 c317: t_3_36 - t_4_5 + 43200 y_3_35_4_5 <= 43200
 c318: t_4_6 - t_3_35 - 43200 y_3_35_4_5 <= 0
 c319: t_3_38 - t_4_3 + 43200 y_3_37_4_3 <= 43200
 c320: t_4_4 - t_3_37 - 43200 y_3_37_4_3 <= 0
 c321: t_3_40 - t_4_1 + 43200 y_3_39_4_1 <= 43200
 c322: t_4_2 - t_3_39 - 43200 y_3_39_4_1 <= 0
 c323: t_0_27 - 43200 thr_0_27_0 <= 10848
 c324: t_0_27 - 43200 thr_0_27_180 <= 11028
 c325: t_0_27 - 43200 thr_0_27_360 <= 11208
 c326: t_1_25 - 43200 thr_1_25_0 <= 2764
 c327: t_1_25 - 43200 thr_1_25_180 <= 2944
 c328: t_1_25 - 43200 thr_1_25_360 <= 3124
 c329: t_2_13 - 43200 thr_2_13_0 <= 594
 c330: t_2_13 - 43200 thr_2_13_180 <= 774
 c331: t_2_13 - 43200 thr_2_13_360 <= 954
 c332: t_3_39 - 43200 thr_3_39_0 <= 6184
 c333: t_3_39 - 43200 thr_3_39_180 <= 6364
 c334: t_3_39 - 43200 thr_3_39_360 <= 6544
 c335: t_4_39 - 43200 thr_4_39_0 <= 4194
 c336: t_4_39 - 43200 thr_4_39_180 <= 4374
 c337: t_4_39 - 43200 thr_4_39_360 <= 4554

Bounds
       t_0_0 <= 43200
       t_0_1 <= 43200
       t_0_2 <= 43200
       t_0_3 <= 43200
 108 <= t_0_4 <= 43200
 108 <= t_0_5 <= 43200
 270 <= t_0_6 <= 43200
 270 <= t_0_7 <= 43200
 695 <= t_0_8 <= 43200
 695 <= t_0_9 <= 43200
 995 <= t_0_10 <= 43200
 995 <= t_0_11 <= 43200
 1341 <= t_0_12 <= 43200
 1581 <= t_0_13 <= 43200
 2044 <= t_0_14 <= 43200
 2044 <= t_0_15 <= 43200
 2285 <= t_0_16 <= 43200
 2285 <= t_0_17 <= 43200
 2781 <= t_0_18 <= 43200
 9141 <= t_0_19 <= 43200
 9531 <= t_0_20 <= 43200
 9531 <= t_0_21 <= 43200
 9811 <= t_0_22 <= 43200
 9811 <= t_0_23 <= 43200
 10341 <= t_0_24 <= 43200
 10641 <= t_0_25 <= 43200
 11105 <= t_0_26 <= 43200
 11105 <= t_0_27 <= 43200
 11661 <= t_0_28 <= 43200
       t_1_0 <= 43200
 21 <= t_1_1 <= 43200
 231 <= t_1_2 <= 43200
 261 <= t_1_3 <= 43200
 411 <= t_1_4 <= 43200
 441 <= t_1_5 <= 43200
 591 <= t_1_6 <= 43200
 621 <= t_1_7 <= 43200
 711 <= t_1_8 <= 43200
 741 <= t_1_9 <= 43200
 919 <= t_1_10 <= 43200
 919 <= t_1_11 <= 43200
 999 <= t_1_12 <= 43200
 999 <= t_1_13 <= 43200
 1121 <= t_1_14 <= 43200
 1161 <= t_1_15 <= 43200
 1641 <= t_1_16 <= 43200
 1821 <= t_1_17 <= 43200
 2061 <= t_1_18 <= 43200
 2061 <= t_1_19 <= 43200
 2271 <= t_1_20 <= 43200
 2301 <= t_1_21 <= 43200
 2601 <= t_1_22 <= 43200
 2601 <= t_1_23 <= 43200
 2781 <= t_1_24 <= 43200
 2781 <= t_1_25 <= 43200
 3081 <= t_1_26 <= 43200
       t_2_0 <= 43200
       t_2_1 <= 43200
 90 <= t_2_2 <= 43200
 90 <= t_2_3 <= 43200
 120 <= t_2_4 <= 43200
 120 <= t_2_5 <= 43200
 270 <= t_2_6 <= 43200
 300 <= t_2_7 <= 43200
 390 <= t_2_8 <= 43200
 420 <= t_2_9 <= 43200
 510 <= t_2_10 <= 43200
 540 <= t_2_11 <= 43200
 650 <= t_2_12 <= 43200
 650 <= t_2_13 <= 43200
 900 <= t_2_14 <= 43200
 2644 <= t_3_0 <= 43200
 2704 <= t_3_1 <= 43200
 2856 <= t_3_2 <= 43200
 2856 <= t_3_3 <= 43200
 2974 <= t_3_4 <= 43200
 3004 <= t_3_5 <= 43200
 3094 <= t_3_6 <= 43200
 3124 <= t_3_7 <= 43200
 3214 <= t_3_8 <= 43200
 3244 <= t_3_9 <= 43200
 3363 <= t_3_10 <= 43200
 3363 <= t_3_11 <= 43200
 3408 <= t_3_12 <= 43200
 3408 <= t_3_13 <= 43200
 3544 <= t_3_14 <= 43200
 3604 <= t_3_15 <= 43200
 3814 <= t_3_16 <= 43200
 3844 <= t_3_17 <= 43200
 3994 <= t_3_18 <= 43200
 4024 <= t_3_19 <= 43200
 4174 <= t_3_20 <= 43200
 4204 <= t_3_21 <= 43200
 4294 <= t_3_22 <= 43200
 4324 <= t_3_23 <= 43200
 4502 <= t_3_24 <= 43200
 4502 <= t_3_25 <= 43200
 4582 <= t_3_26 <= 43200
 4582 <= t_3_27 <= 43200
 4704 <= t_3_28 <= 43200
 4744 <= t_3_29 <= 43200
 5224 <= t_3_30 <= 43200
 5224 <= t_3_31 <= 43200
 5464 <= t_3_32 <= 43200
 5464 <= t_3_33 <= 43200
 5674 <= t_3_34 <= 43200
 5704 <= t_3_35 <= 43200
 6004 <= t_3_36 <= 43200
 6004 <= t_3_37 <= 43200
 6184 <= t_3_38 <= 43200
 6184 <= t_3_39 <= 43200
 6484 <= t_3_40 <= 43200
 544 <= t_4_0 <= 43200
 544 <= t_4_1 <= 43200
 844 <= t_4_2 <= 43200
 844 <= t_4_3 <= 43200
 1024 <= t_4_4 <= 43200
 1024 <= t_4_5 <= 43200
 1294 <= t_4_6 <= 43200
 1324 <= t_4_7 <= 43200
 1564 <= t_4_8 <= 43200
 1564 <= t_4_9 <= 43200
 1804 <= t_4_10 <= 43200
 1804 <= t_4_11 <= 43200
 2124 <= t_4_12 <= 43200
 2164 <= t_4_13 <= 43200
 2271 <= t_4_14 <= 43200
 2271 <= t_4_15 <= 43200
 2343 <= t_4_16 <= 43200
 2343 <= t_4_17 <= 43200
 2554 <= t_4_18 <= 43200
 2584 <= t_4_19 <= 43200
 2734 <= t_4_20 <= 43200
 2764 <= t_4_21 <= 43200
 2854 <= t_4_22 <= 43200
 2884 <= t_4_23 <= 43200
 3034 <= t_4_24 <= 43200
 3064 <= t_4_25 <= 43200
 3364 <= t_4_26 <= 43200
 3544 <= t_4_27 <= 43200
 3634 <= t_4_28 <= 43200
 3634 <= t_4_29 <= 43200
 3664 <= t_4_30 <= 43200
 3664 <= t_4_31 <= 43200
 3814 <= t_4_32 <= 43200
 3844 <= t_4_33 <= 43200
 3934 <= t_4_34 <= 43200
 3964 <= t_4_35 <= 43200
 4054 <= t_4_36 <= 43200
 4084 <= t_4_37 <= 43200
 4194 <= t_4_38 <= 43200
 4194 <= t_4_39 <= 43200
 4444 <= t_4_40 <= 43200
 0 <= y_0_1_1_9 <= 1
 0 <= y_0_3_1_11 <= 1
 0 <= y_0_5_1_13 <= 1
 0 <= y_0_7_1_15 <= 1
 0 <= y_0_9_1_17 <= 1
 0 <= y_0_11_1_19 <= 1
 0 <= y_0_13_1_21 <= 1
 0 <= y_0_15_1_23 <= 1
 0 <= y_0_17_1_25 <= 1
 0 <= y_0_1_3_23 <= 1
 0 <= y_0_3_3_25 <= 1
 0 <= y_0_5_3_27 <= 1
 0 <= y_0_7_3_29 <= 1
 0 <= y_0_9_3_31 <= 1
 0 <= y_0_11_3_33 <= 1
 0 <= y_0_13_3_35 <= 1
 0 <= y_0_15_3_37 <= 1
 0 <= y_0_17_3_39 <= 1
 0 <= y_0_1_4_17 <= 1
 0 <= y_0_3_4_15 <= 1
 0 <= y_0_5_4_13 <= 1
 0 <= y_0_7_4_11 <= 1
 0 <= y_0_9_4_9 <= 1
 0 <= y_0_11_4_7 <= 1
 0 <= y_0_13_4_5 <= 1
 0 <= y_0_15_4_3 <= 1
 0 <= y_0_17_4_1 <= 1
 0 <= y_1_1_3_15 <= 1
 0 <= y_1_3_3_17 <= 1
 0 <= y_1_5_3_19 <= 1
 0 <= y_1_7_3_21 <= 1
 0 <= y_1_9_3_23 <= 1
 0 <= y_1_11_3_25 <= 1
 0 <= y_1_13_3_27 <= 1
 0 <= y_1_15_3_29 <= 1
 0 <= y_1_17_3_31 <= 1
 0 <= y_1_19_3_33 <= 1
 0 <= y_1_21_3_35 <= 1
 0 <= y_1_23_3_37 <= 1
 0 <= y_1_25_3_39 <= 1
 0 <= y_1_1_4_25 <= 1
 0 <= y_1_3_4_23 <= 1
 0 <= y_1_5_4_21 <= 1
 0 <= y_1_7_4_19 <= 1
 0 <= y_1_9_4_17 <= 1
 0 <= y_1_11_4_15 <= 1
 0 <= y_1_13_4_13 <= 1
 0 <= y_1_15_4_11 <= 1
 0 <= y_1_17_4_9 <= 1
 0 <= y_1_19_4_7 <= 1
 0 <= y_1_21_4_5 <= 1
 0 <= y_1_23_4_3 <= 1
 0 <= y_1_25_4_1 <= 1
 0 <= y_2_1_3_13 <= 1
 0 <= y_2_3_3_11 <= 1
 0 <= y_2_5_3_9 <= 1
 0 <= y_2_7_3_7 <= 1
 0 <= y_2_9_3_5 <= 1
 0 <= y_2_11_3_3 <= 1
 0 <= y_2_13_3_1 <= 1
 0 <= y_2_1_4_27 <= 1
 0 <= y_2_3_4_29 <= 1
 0 <= y_2_5_4_31 <= 1
 0 <= y_2_7_4_33 <= 1
 0 <= y_2_9_4_35 <= 1
 0 <= y_2_11_4_37 <= 1
 0 <= y_2_13_4_39 <= 1
 0 <= y_3_1_4_39 <= 1
 0 <= y_3_3_4_37 <= 1
 0 <= y_3_5_4_35 <= 1
 0 <= y_3_7_4_33 <= 1
 0 <= y_3_9_4_31 <= 1
 0 <= y_3_11_4_29 <= 1
 0 <= y_3_13_4_27 <= 1
 0 <= y_3_15_4_25 <= 1
 0 <= y_3_17_4_23 <= 1
 0 <= y_3_19_4_21 <= 1
 0 <= y_3_21_4_19 <= 1
 0 <= y_3_23_4_17 <= 1
 0 <= y_3_25_4_15 <= 1
 0 <= y_3_27_4_13 <= 1
 0 <= y_3_29_4_11 <= 1
 0 <= y_3_31_4_9 <= 1
 0 <= y_3_33_4_7 <= 1
 0 <= y_3_35_4_5 <= 1
 0 <= y_3_37_4_3 <= 1
 0 <= y_3_39_4_1 <= 1
 0 <= thr_0_27_0 <= 1
 0 <= thr_0_27_180 <= 1
 0 <= thr_0_27_360 <= 1
 0 <= thr_1_25_0 <= 1
 0 <= thr_1_25_180 <= 1
 0 <= thr_1_25_360 <= 1
 0 <= thr_2_13_0 <= 1
 0 <= thr_2_13_180 <= 1
 0 <= thr_2_13_360 <= 1
 0 <= thr_3_39_0 <= 1
 0 <= thr_3_39_180 <= 1
 0 <= thr_3_39_360 <= 1
 0 <= thr_4_39_0 <= 1
 0 <= thr_4_39_180 <= 1
 0 <= thr_4_39_360 <= 1

Binaries
 y_0_1_1_9 y_0_3_1_11 y_0_5_1_13 y_0_7_1_15 y_0_9_1_17 y_0_11_1_19 y_0_13_1_21
 y_0_15_1_23 y_0_17_1_25 y_0_1_3_23 y_0_3_3_25 y_0_5_3_27 y_0_7_3_29 y_0_9_3_31
 y_0_11_3_33 y_0_13_3_35 y_0_15_3_37 y_0_17_3_39 y_0_1_4_17 y_0_3_4_15
 y_0_5_4_13 y_0_7_4_11 y_0_9_4_9 y_0_11_4_7 y_0_13_4_5 y_0_15_4_3 y_0_17_4_1
 y_1_1_3_15 y_1_3_3_17 y_1_5_3_19 y_1_7_3_21 y_1_9_3_23 y_1_11_3_25 y_1_13_3_27
 y_1_15_3_29 y_1_17_3_31 y_1_19_3_33 y_1_21_3_35 y_1_23_3_37 y_1_25_3_39
 y_1_1_4_25 y_1_3_4_23 y_1_5_4_21 y_1_7_4_19 y_1_9_4_17 y_1_11_4_15 y_1_13_4_13
 y_1_15_4_11 y_1_17_4_9 y_1_19_4_7 y_1_21_4_5 y_1_23_4_3 y_1_25_4_1 y_2_1_3_13
 y_2_3_3_11 y_2_5_3_9 y_2_7_3_7 y_2_9_3_5 y_2_11_3_3 y_2_13_3_1 y_2_1_4_27
 y_2_3_4_29 y_2_5_4_31 y_2_7_4_33 y_2_9_4_35 y_2_11_4_37 y_2_13_4_39 y_3_1_4_39
 y_3_3_4_37 y_3_5_4_35 y_3_7_4_33 y_3_9_4_31 y_3_11_4_29 y_3_13_4_27 y_3_15_4_25
 y_3_17_4_23 y_3_19_4_21 y_3_21_4_19 y_3_23_4_17 y_3_25_4_15 y_3_27_4_13
 y_3_29_4_11 y_3_31_4_9 y_3_33_4_7 y_3_35_4_5 y_3_37_4_3 y_3_39_4_1 thr_0_27_0
 thr_0_27_180 thr_0_27_360 thr_1_25_0 thr_1_25_180 thr_1_25_360 thr_2_13_0
 thr_2_13_180 thr_2_13_360 thr_3_39_0 thr_3_39_180 thr_3_39_360 thr_4_39_0
 thr_4_39_180 thr_4_39_360
End
